assets/logs/3_14x14_clingo/3_14x14_clingo.solution.log

---------------------------------------------------------
|  0| 51|114| 39| 45|120| 65|  0| 17|128| 69|119| 13|  0|
---------------------------------------------------------
|112| 37| 47|129|116| 41| 19|122| 67|121| 15|126| 71| 89|
---------------------------------------------------------
| 49|131| 53| 43| 74| 63|118|123|  1|124|130| 91|117| 11|
---------------------------------------------------------
| 35|110| 72| 61|127| 21| 76| 34|132|102| 80|  9| 87| 73|
---------------------------------------------------------
|133| 55| 18|108|169| 68|125|104| 78| 36|134| 75| 93|115|
---------------------------------------------------------
| 20| 33| 59| 70| 16|106| 23| 66| 32| 82|100| 97|  7| 85|
---------------------------------------------------------
| 57|135| 22|167| 42|171|  1| 84| 38|  0| 77|136|113| 95|
---------------------------------------------------------
| 31|165|159| 14| 24| 25| 40| 30| 64| 98| 99|  1| 83|  5|
---------------------------------------------------------
|137| 12| 29|163|173| 44| 26| 96| 86|176|138| 79|146|111|
---------------------------------------------------------
|  8|161|175|157| 27|  2| 88| 62| 28|101|148|109|  3| 81|
---------------------------------------------------------
|177|139| 10|  4| 46| 60| 94|103|174|107|178|140|150|144|
---------------------------------------------------------
|151|  6|155|145|183| 90| 48| 54|156|  0|172|166|180|  0|
---------------------------------------------------------
|141|179|149|  1| 58| 52|158| 92|105|  1|162|152|142|168|
---------------------------------------------------------
|  0|153|143|181|147|  0| 56| 50|160|154|  0|170|164|182|
---------------------------------------------------------

| n = 14 | k = 5 | coverage = 187, 95.40816326530613%
 Time 299.999
 Name 3_14x14_clingo

