assets/logs/3_14x14_clingo/3_14x14_clingo.log
clingo version 5.4.0
Reading from ...ts/logs/3_14x14_clingo/knights_tour.lp ...
Solving...
Answer: 1
occ(1,7,7) occ(1,13,4) occ(1,3,9) occ(1,13,10) occ(1,8,12) occ(2,10,6) occ(3,10,13) coverage(6)
Optimization: -6
Answer: 2
occ(1,7,7) occ(1,13,4) occ(1,3,9) occ(1,13,10) occ(1,8,12) occ(2,10,6) occ(3,10,13) coverage(154) occ(21,1,1) occ(24,1,10) occ(46,1,7) occ(50,1,5) occ(55,1,2) occ(58,1,11) occ(67,1,6) occ(81,1,13) occ(87,1,12) occ(99,1,8) occ(103,1,4) occ(153,1,3) occ(23,2,3) occ(26,2,12) occ(52,2,7) occ(56,2,9) occ(60,2,13) occ(69,2,8) occ(83,2,11) occ(89,2,14) occ(97,2,10) occ(101,2,6) occ(105,2,2) occ(151,2,5) occ(155,2,1) occ(19,3,2) occ(22,3,11) occ(28,3,10) occ(44,3,8) occ(48,3,6) occ(53,3,1) occ(57,3,3) occ(64,3,12) occ(65,3,5) occ(79,3,14) occ(85,3,13) occ(25,4,2) occ(34,4,12) occ(54,4,8) occ(59,4,5) occ(62,4,14) occ(63,4,7) occ(66,4,10) occ(71,4,9) occ(91,4,13) occ(95,4,11) occ(107,4,1) occ(149,4,6) occ(17,5,3) occ(20,5,12) occ(29,5,1) occ(30,5,11) occ(36,5,14) occ(42,5,9) occ(51,5,2) occ(76,5,10) occ(77,5,13) occ(121,5,7) occ(27,6,3) occ(32,6,13) occ(40,6,11) occ(61,6,6) occ(68,6,9) occ(73,6,10) occ(74,6,8) occ(93,6,12) occ(109,6,2) occ(117,6,4) occ(123,6,5) occ(147,6,7) occ(15,7,4) occ(18,7,11) occ(31,7,2) occ(38,7,13) occ(49,7,1) occ(72,7,10) occ(75,7,12) occ(78,7,9) occ(113,7,3) occ(114,7,5) occ(119,7,6) occ(6,8,10) occ(11,8,7) occ(70,8,8) occ(80,8,11) occ(111,8,1) occ(112,8,3) occ(115,8,5) occ(125,8,4) occ(136,8,13) occ(145,8,6) occ(4,9,8) occ(7,9,10) occ(13,9,5) occ(16,9,12) occ(33,9,1) occ(47,9,2) occ(82,9,9) occ(116,9,6) occ(8,10,11) occ(9,10,8) occ(110,10,2) occ(118,10,4) occ(124,10,7) occ(127,10,3) occ(134,10,12) occ(138,10,14) occ(143,10,5) occ(5,11,11) occ(14,11,13) occ(35,11,2) occ(45,11,1) occ(84,11,10) occ(106,11,3) occ(120,11,6) occ(126,11,9) occ(132,11,14) occ(141,11,7) occ(10,12,12) occ(37,12,4) occ(90,12,10) occ(96,12,9) occ(100,12,7) occ(104,12,5) occ(108,12,1) occ(122,12,8) occ(128,12,11) occ(129,12,2) occ(137,12,6) occ(140,12,13) occ(12,13,14) occ(39,13,6) occ(43,13,2) occ(86,13,9) occ(92,13,12) occ(130,13,13) occ(133,13,5) occ(139,13,8) occ(142,13,11) occ(146,13,7) occ(150,13,3) occ(41,14,4) occ(88,14,11) occ(94,14,10) occ(98,14,8) occ(102,14,6) occ(131,14,3) occ(135,14,7) occ(144,14,9) occ(148,14,5) occ(152,14,1)
Optimization: -154
Answer: 3
occ(1,7,7) occ(1,13,4) occ(1,3,9) occ(1,13,10) occ(1,8,12) occ(2,10,6) occ(3,10,13) coverage(155) occ(15,1,6) occ(27,1,2) occ(33,1,1) occ(46,1,7) occ(50,1,9) occ(94,1,3) occ(132,1,8) occ(136,1,12) occ(140,1,14) occ(162,1,13) occ(13,2,8) occ(25,2,4) occ(31,2,3) occ(44,2,5) occ(45,2,2) occ(52,2,7) occ(92,2,1) occ(99,2,9) occ(130,2,6) occ(134,2,10) occ(142,2,12) occ(166,2,14) occ(11,3,10) occ(17,3,7) occ(23,3,6) occ(29,3,1) occ(35,3,2) occ(41,3,3) occ(48,3,8) occ(54,3,5) occ(96,3,4) occ(101,3,11) occ(138,3,13) occ(160,3,14) occ(164,3,12) occ(19,4,9) occ(37,4,4) occ(42,4,6) occ(43,4,1) occ(47,4,3) occ(53,4,8) occ(84,4,5) occ(90,4,2) occ(97,4,10) occ(128,4,7) occ(144,4,13) occ(156,4,11) occ(9,5,11) occ(21,5,7) occ(39,5,2) occ(51,5,6) occ(56,5,4) occ(86,5,3) occ(98,5,5) occ(103,5,12) occ(126,5,9) occ(158,5,13) occ(7,6,13) occ(40,6,5) occ(49,6,4) occ(55,6,9) occ(60,6,3) occ(70,6,2) occ(82,6,6) occ(88,6,1) occ(95,6,11) occ(124,6,7) occ(146,6,12) occ(150,6,8) occ(154,6,10) occ(32,7,12) occ(57,7,11) occ(58,7,5) occ(62,7,1) occ(78,7,3) occ(93,7,9) occ(100,7,4) occ(105,7,13) occ(123,7,2) occ(127,7,6) occ(148,7,10) occ(4,8,7) occ(5,8,14) occ(12,8,11) occ(34,8,10) occ(38,8,6) occ(59,8,13) occ(68,8,3) occ(72,8,1) occ(80,8,5) occ(122,8,8) occ(125,8,4) occ(152,8,9) occ(153,8,2) occ(6,9,9) occ(10,9,13) occ(16,9,12) occ(30,9,11) occ(36,9,8) occ(64,9,2) occ(76,9,4) occ(91,9,10) occ(102,9,5) occ(107,9,14) occ(114,9,1) occ(120,9,6) occ(121,9,3) occ(129,9,7) occ(8,10,11) occ(14,10,10) occ(18,10,14) occ(61,10,12) occ(66,10,4) occ(74,10,2) occ(83,10,5) occ(116,10,3) occ(151,10,1) occ(28,11,12) occ(63,11,14) occ(67,11,10) occ(81,11,3) occ(85,11,7) occ(89,11,11) occ(104,11,6) occ(109,11,13) occ(112,11,2) occ(118,11,5) occ(119,11,4) occ(131,11,8) occ(20,12,13) occ(26,12,14) occ(65,12,12) occ(69,12,8) occ(75,12,3) occ(79,12,1) occ(87,12,9) occ(106,12,4) occ(111,12,11) occ(137,12,10) occ(141,12,6) occ(149,12,2) occ(24,13,12) occ(71,13,6) occ(110,13,1) occ(113,13,9) occ(117,13,5) occ(133,13,7) occ(139,13,8) occ(145,13,3) occ(22,14,14) occ(73,14,4) occ(77,14,2) occ(108,14,3) occ(115,14,7) occ(135,14,9) occ(143,14,5) occ(147,14,1)
Optimization: -155
Answer: 4
occ(1,7,7) occ(1,13,4) occ(1,3,9) occ(1,13,10) occ(1,8,12) occ(2,10,6) occ(3,10,13) coverage(156) occ(15,1,6) occ(25,1,5) occ(29,1,1) occ(85,1,13) occ(94,1,3) occ(132,1,8) occ(13,2,8) occ(27,2,3) occ(45,2,4) occ(81,2,14) occ(92,2,1) occ(95,2,11) occ(99,2,9) occ(130,2,6) occ(134,2,10) occ(11,3,10) occ(17,3,7) occ(23,3,6) occ(31,3,2) occ(82,3,3) occ(83,3,12) occ(87,3,14) occ(93,3,13) occ(96,3,4) occ(101,3,11) occ(19,4,9) occ(33,4,4) occ(38,4,8) occ(42,4,6) occ(43,4,5) occ(47,4,3) occ(79,4,13) occ(84,4,1) occ(89,4,12) occ(90,4,2) occ(97,4,10) occ(128,4,7) occ(136,4,11) occ(9,5,11) occ(21,5,7) occ(44,5,8) occ(51,5,6) occ(55,5,10) occ(56,5,2) occ(80,5,4) occ(86,5,3) occ(91,5,14) occ(98,5,5) occ(103,5,12) occ(122,5,13) occ(126,5,9) occ(7,6,13) occ(35,6,5) occ(36,6,9) occ(40,6,7) occ(41,6,6) occ(49,6,4) occ(53,6,8) occ(77,6,12) occ(88,6,1) occ(124,6,11) occ(138,6,10) occ(32,7,12) occ(39,7,8) occ(46,7,9) occ(54,7,1) occ(57,7,11) occ(58,7,3) occ(75,7,10) occ(78,7,5) occ(100,7,4) occ(105,7,13) occ(120,7,14) occ(123,7,2) occ(127,7,6) occ(4,8,5) occ(5,8,14) occ(34,8,10) occ(37,8,6) occ(48,8,7) occ(52,8,3) occ(59,8,13) occ(60,8,1) occ(73,8,8) occ(102,8,2) occ(125,8,4) occ(140,8,11) occ(16,9,8) occ(30,9,11) occ(50,9,5) occ(76,9,4) occ(107,9,14) occ(114,9,9) occ(118,9,13) occ(121,9,3) occ(129,9,7) occ(152,9,12) occ(6,10,4) occ(61,10,12) occ(62,10,2) occ(71,10,9) occ(72,10,5) occ(104,10,3) occ(110,10,8) occ(116,10,11) occ(135,10,7) occ(142,10,10) occ(150,10,14) occ(14,11,7) occ(18,11,9) occ(28,11,12) occ(63,11,14) occ(66,11,1) occ(74,11,3) occ(106,11,5) occ(109,11,13) occ(112,11,10) occ(119,11,4) occ(131,11,6) occ(139,11,8) occ(154,11,11) occ(155,11,2) occ(8,12,5) occ(26,12,14) occ(64,12,3) occ(65,12,12) occ(69,12,10) occ(70,12,4) occ(108,12,7) occ(111,12,11) occ(133,12,8) occ(137,12,6) occ(144,12,9) occ(148,12,13) occ(149,12,2) occ(12,13,6) occ(20,13,8) occ(24,13,12) occ(68,13,2) occ(113,13,9) occ(117,13,5) occ(141,13,7) occ(145,13,3) occ(146,13,11) occ(153,13,1) occ(10,14,4) occ(22,14,10) occ(67,14,11) occ(115,14,7) occ(143,14,5) occ(147,14,1) occ(151,14,3)
Optimization: -156
Answer: 5
occ(1,7,7) occ(1,13,4) occ(1,3,9) occ(1,13,10) occ(1,8,12) occ(2,10,6) occ(3,10,13) coverage(166) occ(12,1,10) occ(13,1,11) occ(22,1,13) occ(28,1,14) occ(72,1,6) occ(78,1,3) occ(103,1,2) occ(137,1,5) occ(141,1,9) occ(10,2,8) occ(11,2,13) occ(16,2,9) occ(20,2,11) occ(26,2,12) occ(41,2,2) occ(74,2,4) occ(80,2,5) occ(99,2,3) occ(139,2,7) occ(145,2,10) occ(149,2,14) occ(14,3,11) occ(15,3,10) occ(24,3,14) occ(30,3,13) occ(56,3,6) occ(70,3,5) occ(76,3,2) occ(86,3,7) occ(101,3,1) occ(105,3,3) occ(135,3,4) occ(143,3,8) occ(147,3,12) occ(8,4,7) occ(9,4,14) occ(18,4,10) occ(19,4,11) occ(39,4,3) occ(42,4,12) occ(43,4,1) occ(54,4,8) occ(58,4,4) occ(82,4,6) occ(88,4,9) occ(97,4,2) occ(107,4,5) occ(151,4,13) occ(17,5,9) occ(32,5,14) occ(37,5,5) occ(44,5,10) occ(52,5,6) occ(60,5,2) occ(65,5,11) occ(68,5,4) occ(84,5,8) occ(92,5,12) occ(93,5,1) occ(109,5,7) occ(133,5,3) occ(6,6,6) occ(7,6,13) occ(21,6,12) occ(40,6,11) occ(45,6,2) occ(46,6,8) occ(50,6,4) occ(67,6,9) occ(90,6,10) occ(95,6,3) occ(131,6,1) occ(148,6,5) occ(153,6,14) occ(23,7,10) occ(34,7,13) occ(35,7,4) occ(38,7,9) occ(48,7,6) occ(62,7,1) occ(63,7,12) occ(66,7,5) occ(91,7,2) occ(94,7,11) occ(111,7,8) occ(150,7,3) occ(4,8,5) occ(5,8,14) occ(25,8,8) occ(31,8,7) occ(36,8,11) occ(47,8,1) occ(64,8,3) occ(69,8,10) occ(113,8,6) occ(129,8,2) occ(140,8,9) occ(146,8,4) occ(155,8,13) occ(27,9,6) occ(33,9,5) occ(61,9,11) occ(85,9,1) occ(89,9,3) occ(96,9,10) occ(115,9,4) occ(122,9,9) occ(136,9,8) occ(142,9,7) occ(152,9,2) occ(165,9,13) occ(29,10,8) occ(49,10,2) occ(59,10,9) occ(71,10,11) occ(83,10,3) occ(127,10,1) occ(138,10,10) occ(144,10,5) occ(157,10,12) occ(51,11,4) occ(55,11,6) occ(87,11,2) occ(98,11,9) occ(102,11,5) occ(114,11,13) occ(117,11,3) occ(120,11,10) occ(124,11,8) occ(134,11,7) occ(154,11,1) occ(159,11,14) occ(163,11,12) occ(57,12,8) occ(73,12,10) occ(81,12,4) occ(100,12,7) occ(108,12,9) occ(118,12,12) occ(119,12,1) occ(125,12,2) occ(126,12,6) occ(132,12,5) occ(160,12,3) occ(53,13,5) occ(77,13,7) occ(104,13,6) occ(112,13,12) occ(116,13,14) occ(121,13,3) occ(128,13,8) occ(156,13,2) occ(161,13,13) occ(162,13,1) occ(75,14,9) occ(79,14,5) occ(106,14,8) occ(110,14,10) occ(123,14,1) occ(130,14,6) occ(158,14,4) occ(164,14,3)
Optimization: -166
Answer: 6
occ(1,7,7) occ(1,13,4) occ(1,3,9) occ(1,13,10) occ(1,8,12) occ(2,10,6) occ(3,10,13) coverage(175) occ(26,1,7) occ(29,1,13) occ(33,1,9) occ(37,1,5) occ(41,1,1) occ(81,1,11) occ(127,1,4) occ(135,1,2) occ(139,1,6) occ(143,1,8) occ(147,1,12) occ(24,2,5) occ(25,2,12) occ(31,2,11) occ(35,2,7) occ(39,2,3) occ(78,2,8) occ(79,2,13) occ(85,2,14) occ(100,2,9) occ(125,2,6) occ(129,2,2) occ(137,2,4) occ(145,2,10) occ(27,3,14) occ(28,3,6) occ(43,3,2) occ(54,3,5) occ(57,3,1) occ(68,3,4) occ(76,3,10) occ(83,3,12) occ(98,3,11) occ(123,3,8) occ(133,3,3) occ(141,3,7) occ(149,3,13) occ(22,4,6) occ(23,4,11) occ(30,4,8) occ(34,4,12) occ(45,4,4) occ(59,4,3) occ(62,4,2) occ(72,4,7) occ(77,4,14) occ(80,4,9) occ(87,4,13) occ(102,4,10) occ(131,4,1) occ(20,5,8) occ(32,5,10) occ(38,5,13) occ(52,5,6) occ(55,5,2) occ(56,5,4) occ(61,5,1) occ(66,5,3) occ(70,5,5) occ(73,5,11) occ(74,5,9) occ(96,5,12) occ(121,5,7) occ(151,5,14) occ(21,6,12) occ(36,6,11) occ(47,6,5) occ(50,6,8) occ(53,6,4) occ(60,6,3) occ(64,6,1) occ(75,6,13) occ(82,6,10) occ(89,6,14) occ(104,6,9) occ(114,6,6) occ(118,6,2) occ(18,7,9) occ(40,7,14) occ(49,7,3) occ(58,7,5) occ(63,7,2) occ(71,7,10) occ(84,7,8) occ(91,7,12) occ(94,7,11) occ(116,7,4) occ(119,7,6) occ(153,7,13) occ(16,8,11) occ(19,8,13) occ(48,8,9) occ(51,8,5) occ(65,8,4) occ(69,8,8) occ(86,8,6) occ(93,8,14) occ(106,8,10) occ(112,8,7) occ(120,8,1) occ(128,8,3) occ(42,9,13) occ(67,9,6) occ(92,9,10) occ(95,9,12) occ(110,9,9) occ(117,9,5) occ(122,9,3) occ(126,9,1) occ(155,9,14) occ(162,9,11) occ(172,9,4) occ(14,10,12) occ(17,10,14) occ(46,10,10) occ(88,10,7) occ(101,10,8) occ(108,10,11) occ(130,10,4) occ(148,10,3) occ(156,10,5) occ(160,10,9) occ(4,11,8) occ(12,11,14) occ(44,11,12) occ(90,11,9) occ(97,11,11) occ(107,11,4) occ(115,11,6) occ(124,11,2) occ(150,11,1) occ(157,11,13) occ(158,11,7) occ(164,11,10) occ(170,11,5) occ(174,11,3) occ(5,12,12) occ(9,12,14) occ(15,12,13) occ(99,12,9) occ(103,12,7) occ(109,12,6) occ(132,12,5) occ(136,12,1) occ(140,12,3) occ(146,12,2) occ(154,12,4) occ(163,12,11) occ(166,12,8) occ(169,12,10) occ(6,13,9) occ(10,13,13) occ(11,13,12) occ(105,13,5) occ(113,13,7) occ(134,13,3) occ(142,13,1) occ(152,13,2) occ(159,13,14) occ(167,13,8) occ(168,13,6) occ(173,13,11) occ(7,14,13) occ(8,14,11) occ(13,14,14) occ(111,14,5) occ(138,14,2) occ(144,14,3) occ(161,14,12) occ(165,14,10) occ(171,14,9)
Optimization: -175
Answer: 7
occ(1,7,7) occ(1,13,4) occ(1,3,9) occ(1,13,10) occ(1,8,12) occ(2,10,6) occ(3,10,13) coverage(176) occ(26,1,7) occ(29,1,13) occ(33,1,9) occ(37,1,5) occ(41,1,1) occ(81,1,11) occ(127,1,4) occ(135,1,2) occ(139,1,6) occ(143,1,8) occ(147,1,12) occ(24,2,5) occ(25,2,12) occ(31,2,11) occ(35,2,7) occ(39,2,3) occ(78,2,8) occ(79,2,13) occ(85,2,14) occ(100,2,9) occ(125,2,6) occ(129,2,2) occ(137,2,4) occ(145,2,10) occ(27,3,14) occ(28,3,6) occ(43,3,2) occ(54,3,5) occ(57,3,1) occ(68,3,4) occ(76,3,10) occ(83,3,12) occ(98,3,11) occ(123,3,8) occ(133,3,3) occ(141,3,7) occ(149,3,13) occ(22,4,6) occ(23,4,11) occ(30,4,8) occ(34,4,12) occ(45,4,4) occ(59,4,3) occ(62,4,2) occ(72,4,7) occ(77,4,14) occ(80,4,9) occ(87,4,13) occ(102,4,10) occ(131,4,1) occ(20,5,8) occ(32,5,10) occ(38,5,13) occ(52,5,6) occ(55,5,2) occ(56,5,4) occ(61,5,1) occ(66,5,3) occ(70,5,5) occ(73,5,11) occ(74,5,9) occ(96,5,12) occ(121,5,7) occ(151,5,14) occ(21,6,12) occ(36,6,11) occ(47,6,5) occ(50,6,8) occ(53,6,4) occ(60,6,3) occ(64,6,1) occ(75,6,13) occ(82,6,10) occ(89,6,14) occ(104,6,9) occ(114,6,6) occ(118,6,2) occ(18,7,9) occ(40,7,14) occ(49,7,3) occ(58,7,5) occ(63,7,2) occ(71,7,10) occ(84,7,8) occ(91,7,12) occ(94,7,11) occ(116,7,4) occ(119,7,6) occ(153,7,13) occ(16,8,11) occ(19,8,13) occ(48,8,9) occ(51,8,5) occ(65,8,4) occ(69,8,8) occ(86,8,6) occ(93,8,14) occ(106,8,10) occ(111,8,3) occ(112,8,7) occ(120,8,1) occ(174,8,2) occ(42,9,13) occ(67,9,6) occ(92,9,10) occ(95,9,12) occ(110,9,9) occ(113,9,5) occ(117,9,7) occ(122,9,3) occ(128,9,2) occ(155,9,14) occ(162,9,11) occ(172,9,4) occ(14,10,12) occ(17,10,14) occ(46,10,10) occ(88,10,7) occ(101,10,8) occ(108,10,11) occ(109,10,2) occ(126,10,4) occ(148,10,3) occ(156,10,5) occ(160,10,9) occ(4,11,8) occ(12,11,14) occ(44,11,12) occ(90,11,9) occ(97,11,11) occ(107,11,4) occ(115,11,6) occ(124,11,2) occ(130,11,3) occ(150,11,1) occ(157,11,13) occ(158,11,7) occ(164,11,10) occ(170,11,5) occ(5,12,12) occ(9,12,14) occ(15,12,13) occ(99,12,9) occ(103,12,7) occ(132,12,5) occ(136,12,1) occ(140,12,3) occ(146,12,2) occ(154,12,4) occ(163,12,11) occ(166,12,8) occ(169,12,10) occ(6,13,9) occ(10,13,13) occ(11,13,12) occ(105,13,5) occ(134,13,3) occ(142,13,1) occ(152,13,2) occ(159,13,14) occ(167,13,8) occ(168,13,6) occ(173,13,7) occ(7,14,13) occ(8,14,11) occ(13,14,14) occ(138,14,2) occ(144,14,3) occ(161,14,12) occ(165,14,10) occ(171,14,9) occ(175,14,5)
Optimization: -176
Answer: 8
occ(1,7,7) occ(1,13,4) occ(1,3,9) occ(1,13,10) occ(1,8,12) occ(2,10,6) occ(3,10,13) coverage(177) occ(34,1,9) occ(35,1,10) occ(38,1,11) occ(56,1,6) occ(57,1,5) occ(69,1,7) occ(70,1,13) occ(135,1,2) occ(163,1,4) occ(167,1,8) occ(171,1,12) occ(32,2,11) occ(33,2,12) occ(37,2,8) occ(40,2,13) occ(54,2,4) occ(59,2,7) occ(67,2,9) occ(71,2,5) occ(139,2,1) occ(143,2,3) occ(161,2,2) occ(165,2,6) occ(169,2,10) occ(173,2,14) occ(30,3,13) occ(36,3,10) occ(39,3,6) occ(55,3,4) occ(58,3,7) occ(64,3,8) occ(65,3,11) occ(68,3,12) occ(72,3,14) occ(75,3,2) occ(133,3,1) occ(137,3,3) occ(145,3,5) occ(31,4,11) occ(42,4,12) occ(47,4,9) occ(52,4,5) occ(61,4,8) occ(62,4,6) occ(66,4,10) occ(73,4,4) occ(131,4,3) occ(141,4,2) occ(146,4,14) occ(147,4,7) occ(159,4,1) occ(175,4,13) occ(28,5,14) occ(41,5,7) occ(53,5,5) occ(60,5,8) occ(63,5,10) occ(74,5,13) occ(77,5,3) occ(110,5,11) occ(127,5,2) occ(144,5,12) occ(149,5,9) occ(29,6,12) occ(44,6,11) occ(45,6,10) occ(49,6,8) occ(50,6,6) occ(112,6,9) occ(120,6,3) occ(123,6,1) occ(129,6,4) occ(148,6,13) occ(151,6,7) occ(154,6,14) occ(157,6,2) occ(26,7,13) occ(43,7,8) occ(46,7,9) occ(51,7,6) occ(76,7,14) occ(79,7,2) occ(89,7,1) occ(108,7,10) occ(122,7,5) occ(125,7,3) occ(142,7,11) occ(152,7,12) occ(155,7,4) occ(27,8,11) occ(48,8,7) occ(87,8,3) occ(95,8,5) occ(104,8,9) occ(114,8,8) occ(118,8,4) occ(121,8,2) occ(150,8,14) occ(153,8,6) occ(156,8,13) occ(170,8,10) occ(4,9,8) occ(24,9,14) occ(25,9,9) occ(78,9,13) occ(81,9,3) occ(85,9,5) occ(91,9,2) occ(97,9,7) occ(106,9,11) occ(116,9,6) occ(124,9,4) occ(140,9,12) occ(176,9,10) occ(16,10,7) occ(82,10,14) occ(93,10,4) occ(99,10,5) occ(102,10,8) occ(111,10,1) occ(119,10,3) occ(126,10,2) occ(138,10,10) occ(158,10,12) occ(168,10,11) occ(172,10,9) occ(6,11,7) occ(14,11,5) occ(18,11,9) occ(22,11,13) occ(23,11,10) occ(80,11,12) occ(83,11,4) occ(92,11,6) occ(103,11,2) occ(113,11,3) occ(117,11,1) occ(136,11,8) occ(160,11,14) occ(174,11,11) occ(5,12,12) occ(8,12,5) occ(9,12,14) occ(17,12,6) occ(20,12,11) occ(84,12,13) occ(90,12,8) occ(96,12,7) occ(100,12,9) occ(101,12,4) occ(109,12,2) occ(128,12,1) occ(166,12,10) occ(11,13,12) occ(12,13,6) occ(15,13,8) occ(21,13,9) occ(86,13,11) occ(94,13,5) occ(105,13,1) occ(115,13,2) occ(130,13,3) occ(134,13,7) occ(162,13,13) occ(7,14,13) occ(10,14,4) occ(13,14,10) occ(19,14,7) occ(88,14,9) occ(98,14,8) occ(107,14,3) occ(132,14,5) occ(164,14,11)
Optimization: -177
Answer: 9
occ(1,7,7) occ(1,13,4) occ(1,3,9) occ(1,13,10) occ(1,8,12) occ(2,10,6) occ(3,10,13) coverage(178) occ(22,1,3) occ(29,1,11) occ(37,1,13) occ(43,1,10) occ(47,1,6) occ(51,1,2) occ(57,1,5) occ(61,1,7) occ(136,1,8) occ(139,1,4) occ(140,1,12) occ(20,2,5) occ(24,2,1) occ(31,2,13) occ(35,2,11) occ(41,2,12) occ(45,2,8) occ(49,2,4) occ(55,2,3) occ(63,2,9) occ(69,2,14) occ(126,2,2) occ(134,2,6) occ(138,2,10) occ(27,3,10) occ(39,3,14) occ(53,3,1) occ(59,3,6) occ(65,3,11) occ(71,3,12) occ(124,3,4) occ(137,3,3) occ(141,3,5) occ(142,3,13) occ(159,3,8) occ(18,4,4) occ(26,4,2) occ(33,4,12) occ(67,4,13) occ(68,4,3) occ(73,4,10) occ(105,4,14) occ(118,4,8) occ(128,4,1) occ(132,4,5) occ(143,4,7) occ(155,4,9) occ(161,4,6) occ(176,4,11) occ(8,5,6) occ(25,5,11) occ(70,5,1) occ(77,5,13) occ(103,5,12) occ(116,5,10) occ(122,5,5) occ(130,5,3) occ(135,5,2) occ(144,5,14) occ(145,5,9) occ(157,5,7) occ(163,5,4) occ(167,5,8) occ(6,6,4) occ(16,6,5) occ(28,6,1) occ(66,6,2) occ(75,6,11) occ(100,6,9) occ(101,6,14) occ(107,6,13) occ(120,6,7) occ(149,6,10) occ(153,6,8) occ(165,6,6) occ(174,6,12) occ(10,7,5) occ(23,7,10) occ(30,7,3) occ(64,7,4) occ(72,7,2) occ(76,7,6) occ(79,7,12) occ(114,7,11) occ(133,7,1) occ(146,7,13) occ(147,7,8) occ(169,7,9) occ(172,7,14) occ(4,8,5) occ(14,8,6) occ(32,8,1) occ(74,8,4) occ(98,8,8) occ(99,8,13) occ(102,8,10) occ(109,8,14) occ(131,8,3) occ(148,8,11) occ(151,8,9) occ(171,8,7) occ(12,9,4) occ(21,9,9) occ(34,9,3) occ(50,9,1) occ(62,9,5) occ(78,9,7) occ(81,9,11) occ(96,9,6) occ(104,9,8) occ(111,9,12) occ(112,9,10) occ(115,9,14) occ(170,9,13) occ(19,10,7) occ(36,10,5) occ(44,10,1) occ(48,10,3) occ(97,10,14) occ(108,10,9) occ(117,10,12) occ(129,10,4) occ(150,10,10) occ(173,10,8) occ(17,11,9) occ(42,11,3) occ(52,11,2) occ(60,11,4) occ(80,11,6) occ(83,11,12) occ(94,11,5) occ(106,11,7) occ(110,11,11) occ(113,11,13) occ(119,11,10) occ(152,11,8) occ(168,11,14) occ(5,12,14) occ(9,12,12) occ(15,12,11) occ(38,12,4) occ(46,12,2) occ(87,12,9) occ(88,12,1) occ(92,12,3) occ(95,12,13) occ(121,12,8) occ(127,12,5) occ(154,12,10) occ(158,12,6) occ(175,12,7) occ(11,13,14) occ(40,13,2) occ(54,13,1) occ(58,13,5) occ(82,13,7) occ(85,13,11) occ(86,13,3) occ(91,13,12) occ(123,13,6) occ(156,13,8) occ(162,13,9) occ(166,13,13) occ(7,14,13) occ(13,14,12) occ(56,14,3) occ(84,14,5) occ(89,14,10) occ(90,14,2) occ(93,14,14) occ(125,14,4) occ(160,14,7) occ(164,14,11) occ(177,14,8)
Optimization: -178
Answer: 10
occ(1,7,7) occ(1,13,4) occ(1,3,9) occ(1,13,10) occ(1,8,12) occ(2,10,6) occ(3,10,13) coverage(179) occ(26,1,3) occ(30,1,7) occ(34,1,9) occ(38,1,5) occ(44,1,6) occ(54,1,11) occ(83,1,10) occ(152,1,4) occ(156,1,8) occ(160,1,12) occ(177,1,1) occ(28,2,5) occ(36,2,7) occ(42,2,4) occ(52,2,9) occ(81,2,8) occ(85,2,12) occ(150,2,2) occ(154,2,6) occ(158,2,10) occ(162,2,14) occ(175,2,3) occ(24,3,4) occ(32,3,8) occ(40,3,6) occ(46,3,7) occ(50,3,11) occ(56,3,12) occ(77,3,5) occ(87,3,14) occ(88,3,10) occ(98,3,13) occ(146,3,3) occ(173,3,1) occ(15,4,11) occ(43,4,5) occ(48,4,9) occ(65,4,2) occ(79,4,7) occ(82,4,10) occ(86,4,8) occ(90,4,12) occ(94,4,14) occ(129,4,4) occ(148,4,1) occ(164,4,13) occ(171,4,3) occ(13,5,9) occ(22,5,5) occ(41,5,3) occ(45,5,7) occ(58,5,11) occ(75,5,4) occ(80,5,8) occ(89,5,13) occ(96,5,12) occ(100,5,14) occ(115,5,10) occ(127,5,6) occ(144,5,2) occ(169,5,1) occ(11,6,11) occ(17,6,10) occ(20,6,7) occ(63,6,3) occ(67,6,1) occ(73,6,2) occ(78,6,6) occ(84,6,9) occ(92,6,13) occ(102,6,12) occ(117,6,8) occ(121,6,4) occ(131,6,5) occ(166,6,14) occ(9,7,9) occ(39,7,4) occ(47,7,8) occ(60,7,10) occ(69,7,3) occ(91,7,14) occ(113,7,11) occ(119,7,6) occ(125,7,5) occ(142,7,1) occ(167,7,2) occ(168,7,12) occ(178,7,13) occ(12,8,5) occ(18,8,8) occ(19,8,9) occ(49,8,10) occ(61,8,4) occ(71,8,1) occ(76,8,7) occ(104,8,11) occ(111,8,13) occ(123,8,3) occ(133,8,6) occ(170,8,14) occ(7,9,10) occ(10,9,3) occ(14,9,7) occ(21,9,11) occ(37,9,5) occ(51,9,8) occ(59,9,6) occ(62,9,9) occ(93,9,13) occ(139,9,4) occ(140,9,2) occ(165,9,1) occ(172,9,12) occ(176,9,14) occ(8,10,1) occ(16,10,9) occ(35,10,7) occ(66,10,10) occ(74,10,8) occ(95,10,11) occ(106,10,12) occ(109,10,14) occ(135,10,5) occ(138,10,4) occ(163,10,3) occ(4,11,4) occ(5,11,11) occ(23,11,10) occ(27,11,6) occ(53,11,9) occ(57,11,7) occ(64,11,8) occ(107,11,12) occ(136,11,2) occ(137,11,3) occ(141,11,5) occ(157,11,1) occ(174,11,13) occ(6,12,2) occ(25,12,8) occ(33,12,6) occ(68,12,9) occ(72,12,7) occ(97,12,12) occ(103,12,11) occ(108,12,13) occ(114,12,14) occ(122,12,10) occ(147,12,5) occ(151,12,1) occ(155,12,3) occ(161,12,4) occ(29,13,7) occ(55,13,8) occ(99,13,14) occ(105,13,13) occ(112,13,12) occ(118,13,11) occ(126,13,9) occ(130,13,5) occ(134,13,1) occ(143,13,6) occ(149,13,3) occ(159,13,2) occ(31,14,5) occ(70,14,8) occ(101,14,12) occ(110,14,14) occ(116,14,13) occ(120,14,9) occ(124,14,11) occ(128,14,7) occ(132,14,3) occ(145,14,4) occ(153,14,2)
Optimization: -179
Answer: 11
occ(1,7,7) occ(1,13,4) occ(1,3,9) occ(1,13,10) occ(1,8,12) occ(2,10,6) occ(3,10,13) coverage(180) occ(26,1,5) occ(29,1,11) occ(33,1,7) occ(39,1,6) occ(43,1,10) occ(57,1,13) occ(63,1,12) occ(127,1,8) occ(169,1,9) occ(176,1,2) occ(23,2,13) occ(28,2,3) occ(31,2,9) occ(35,2,5) occ(41,2,8) occ(45,2,12) occ(55,2,11) occ(61,2,14) occ(125,2,10) occ(129,2,6) occ(133,2,2) occ(144,2,1) occ(171,2,7) occ(174,2,4) occ(24,3,6) occ(27,3,10) occ(30,3,5) occ(37,3,7) occ(53,3,13) occ(59,3,12) occ(65,3,11) occ(131,3,4) occ(142,3,3) occ(167,3,8) occ(172,3,2) occ(178,3,1) occ(21,4,14) occ(22,4,8) occ(25,4,12) occ(47,4,13) occ(67,4,9) occ(123,4,11) occ(135,4,3) occ(140,4,1) occ(146,4,2) occ(154,4,4) occ(159,4,7) occ(165,4,10) occ(173,4,6) occ(179,4,5) occ(32,5,6) occ(51,5,12) occ(69,5,11) occ(76,5,14) occ(90,5,7) occ(103,5,10) occ(112,5,4) occ(121,5,13) occ(137,5,1) occ(156,5,2) occ(157,5,5) occ(161,5,9) occ(170,5,3) occ(175,5,8) occ(19,6,13) occ(20,6,7) occ(34,6,4) occ(49,6,14) occ(73,6,10) occ(78,6,12) occ(101,6,8) occ(138,6,2) occ(148,6,3) occ(152,6,5) occ(163,6,11) occ(168,6,1) occ(177,6,6) occ(56,7,10) occ(71,7,12) occ(74,7,13) occ(82,7,9) occ(88,7,8) occ(92,7,6) occ(105,7,11) occ(110,7,3) occ(114,7,5) occ(119,7,14) occ(139,7,2) occ(155,7,4) occ(158,7,1) occ(17,8,14) occ(18,8,6) occ(36,8,3) occ(58,8,8) occ(75,8,9) occ(80,8,11) occ(86,8,10) occ(99,8,7) occ(107,8,13) occ(108,8,5) occ(136,8,1) occ(150,8,4) occ(166,8,2) occ(5,9,11) occ(15,9,12) occ(16,9,4) occ(54,9,9) occ(60,9,10) occ(72,9,14) occ(84,9,8) occ(94,9,7) occ(106,9,3) occ(116,9,6) occ(117,9,13) occ(141,9,1) occ(153,9,5) occ(160,9,2) occ(12,10,7) occ(13,10,14) occ(38,10,4) occ(52,10,11) occ(77,10,10) occ(97,10,8) occ(104,10,5) occ(109,10,12) occ(134,10,2) occ(143,10,3) occ(164,10,1) occ(7,11,10) occ(14,11,5) occ(40,11,2) occ(62,11,9) occ(70,11,13) occ(79,11,8) occ(96,11,6) occ(111,11,14) occ(115,11,12) occ(118,11,7) occ(126,11,1) occ(151,11,4) occ(162,11,3) occ(4,12,7) occ(10,12,8) occ(11,12,13) occ(44,12,5) occ(50,12,10) occ(64,12,11) occ(85,12,12) occ(89,12,14) occ(95,12,9) occ(102,12,6) occ(128,12,3) occ(132,12,1) occ(145,12,4) occ(149,12,2) occ(6,13,5) occ(9,13,11) occ(42,13,3) occ(48,13,8) occ(68,13,14) occ(81,13,9) occ(91,13,12) occ(98,13,7) occ(113,13,13) occ(120,13,6) occ(124,13,2) occ(8,14,7) occ(46,14,6) occ(66,14,12) occ(83,14,11) occ(87,14,13) occ(93,14,10) occ(100,14,5) occ(122,14,4) occ(130,14,2) occ(147,14,3)
Optimization: -180
Answer: 12
occ(1,7,7) occ(1,13,4) occ(1,3,9) occ(1,13,10) occ(1,8,12) occ(2,10,6) occ(3,10,13) coverage(181) occ(35,1,12) occ(61,1,7) occ(65,1,9) occ(69,1,5) occ(73,1,3) occ(77,1,1) occ(135,1,10) occ(139,1,6) occ(143,1,8) occ(147,1,4) occ(165,1,11) occ(173,1,13) occ(179,1,14) occ(33,2,14) occ(37,2,10) occ(67,2,7) occ(79,2,3) occ(133,2,12) occ(137,2,8) occ(140,2,5) occ(145,2,6) occ(149,2,2) occ(163,2,9) occ(167,2,13) occ(175,2,11) occ(29,3,11) occ(59,3,6) occ(63,3,8) occ(71,3,4) occ(75,3,2) occ(81,3,1) occ(131,3,14) occ(138,3,3) occ(141,3,7) occ(153,3,5) occ(159,3,10) occ(171,3,12) occ(177,3,13) occ(27,4,9) occ(31,4,13) occ(39,4,11) occ(45,4,10) occ(55,4,5) occ(94,4,12) occ(97,4,2) occ(136,4,1) occ(142,4,4) occ(151,4,3) occ(155,4,7) occ(161,4,8) occ(169,4,14) occ(13,5,11) occ(23,5,10) occ(43,5,12) occ(47,5,8) occ(57,5,7) occ(83,5,2) occ(95,5,4) occ(96,5,14) occ(126,5,3) occ(129,5,13) occ(157,5,9) occ(178,5,5) occ(11,6,13) occ(15,6,9) occ(21,6,12) occ(25,6,8) occ(41,6,10) occ(49,6,6) occ(53,6,4) occ(92,6,11) occ(99,6,3) occ(128,6,1) occ(134,6,2) occ(144,6,5) occ(180,6,7) occ(8,7,8) occ(9,7,11) occ(19,7,10) occ(85,7,1) occ(90,7,9) occ(93,7,5) occ(98,7,13) occ(124,7,2) occ(127,7,12) occ(132,7,4) occ(146,7,3) occ(176,7,6) occ(6,8,6) occ(7,8,13) occ(10,8,10) occ(17,8,8) occ(44,8,9) occ(51,8,5) occ(68,8,11) occ(88,8,7) occ(91,8,3) occ(101,8,4) occ(125,8,14) occ(130,8,2) occ(168,8,1) occ(4,9,8) occ(5,9,11) occ(66,9,13) occ(70,9,9) occ(86,9,5) occ(87,9,2) occ(100,9,14) occ(103,9,6) occ(104,9,10) occ(122,9,1) occ(123,9,12) occ(148,9,4) occ(170,9,3) occ(174,9,7) occ(12,10,11) occ(24,10,9) occ(42,10,8) occ(46,10,10) occ(72,10,7) occ(89,10,4) occ(102,10,12) occ(121,10,14) occ(152,10,1) occ(156,10,3) occ(166,10,2) occ(172,10,5) occ(14,11,13) occ(22,11,11) occ(26,11,7) occ(48,11,8) occ(56,11,10) occ(64,11,14) occ(76,11,6) occ(84,11,4) occ(105,11,5) occ(106,11,9) occ(119,11,12) occ(120,11,2) occ(150,11,3) occ(158,11,1) occ(20,12,13) occ(28,12,5) occ(34,12,4) occ(40,12,9) occ(50,12,10) occ(58,12,12) occ(74,12,8) occ(107,12,7) occ(110,12,6) occ(111,12,11) occ(117,12,14) occ(154,12,2) occ(160,12,3) occ(164,12,1) occ(16,13,14) occ(32,13,2) occ(36,13,6) occ(54,13,11) occ(62,13,13) occ(78,13,7) occ(82,13,3) occ(108,13,8) occ(109,13,9) occ(114,13,5) occ(115,13,12) occ(118,13,1) occ(18,14,12) occ(30,14,4) occ(38,14,8) occ(52,14,9) occ(60,14,11) occ(80,14,5) occ(112,14,7) occ(113,14,10) occ(116,14,3) occ(162,14,2)
Optimization: -181
Answer: 13
occ(1,7,7) occ(1,13,4) occ(1,3,9) occ(1,13,10) occ(1,8,12) occ(2,10,6) occ(3,10,13) coverage(182) occ(60,1,2) occ(66,1,3) occ(89,1,13) occ(122,1,5) occ(129,1,7) occ(133,1,11) occ(143,1,12) occ(147,1,10) occ(151,1,6) occ(159,1,8) occ(46,2,2) occ(56,2,3) occ(62,2,4) occ(68,2,5) occ(87,2,11) occ(120,2,7) occ(131,2,9) occ(135,2,13) occ(141,2,14) occ(149,2,8) occ(157,2,6) occ(161,2,10) occ(169,2,12) occ(35,3,8) occ(58,3,1) occ(64,3,2) occ(70,3,3) occ(85,3,13) occ(91,3,14) occ(118,3,5) occ(124,3,4) occ(127,3,6) occ(139,3,12) occ(145,3,11) occ(153,3,7) occ(167,3,10) occ(33,4,6) occ(37,4,10) occ(44,4,3) occ(48,4,1) occ(54,4,4) occ(90,4,2) occ(93,4,12) occ(112,4,11) occ(116,4,7) occ(137,4,14) occ(142,4,8) occ(155,4,5) occ(163,4,9) occ(171,4,13) occ(40,5,2) occ(50,5,3) occ(59,5,12) occ(72,5,4) occ(83,5,14) occ(86,5,1) occ(110,5,13) occ(114,5,9) occ(125,5,7) occ(126,5,5) occ(140,5,6) occ(165,5,11) occ(25,6,8) occ(31,6,7) occ(39,6,11) occ(42,6,4) occ(52,6,5) occ(53,6,6) occ(57,6,10) occ(74,6,2) occ(81,6,12) occ(88,6,3) occ(92,6,1) occ(95,6,13) occ(144,6,9) occ(173,6,14) occ(27,7,10) occ(38,7,1) occ(41,7,9) occ(49,7,3) occ(55,7,8) occ(61,7,11) occ(84,7,2) occ(99,7,12) occ(108,7,14) occ(123,7,6) occ(128,7,4) occ(138,7,5) occ(181,7,13) occ(23,8,9) occ(29,8,8) occ(45,8,6) occ(51,8,5) occ(75,8,7) occ(76,8,1) occ(79,8,11) occ(80,8,3) occ(94,8,2) occ(97,8,14) occ(146,8,10) occ(175,8,13) occ(36,9,2) occ(43,9,8) occ(47,9,4) occ(63,9,10) occ(73,9,5) occ(77,9,9) occ(82,9,1) occ(101,9,11) occ(106,9,13) occ(121,9,7) occ(130,9,3) occ(136,9,6) occ(148,9,12) occ(179,9,14) occ(21,10,8) occ(28,10,5) occ(67,10,9) occ(78,10,2) occ(96,10,3) occ(100,10,7) occ(104,10,11) occ(117,10,10) occ(134,10,4) occ(150,10,14) occ(177,10,12) occ(4,11,4) occ(11,11,14) occ(19,11,10) occ(30,11,3) occ(34,11,1) occ(65,11,11) occ(71,11,6) occ(98,11,5) occ(102,11,9) occ(103,11,12) occ(109,11,13) occ(119,11,8) occ(132,11,2) occ(170,11,7) occ(5,12,14) occ(6,12,2) occ(9,12,12) occ(12,12,1) occ(16,12,3) occ(26,12,6) occ(69,12,8) occ(105,12,10) occ(115,12,11) occ(152,12,13) occ(160,12,9) occ(164,12,7) occ(172,12,5) occ(178,12,4) occ(10,13,3) occ(13,13,13) occ(17,13,9) occ(18,13,1) occ(22,13,5) occ(32,13,2) occ(107,13,12) occ(111,13,14) occ(154,13,11) occ(158,13,7) occ(168,13,8) occ(176,13,6) occ(7,14,13) occ(8,14,1) occ(14,14,2) occ(15,14,11) occ(20,14,3) occ(24,14,7) occ(113,14,12) occ(156,14,9) occ(162,14,8) occ(166,14,6) occ(174,14,4) occ(180,14,5)
Optimization: -182
Answer: 14
occ(1,7,7) occ(1,13,4) occ(1,3,9) occ(1,13,10) occ(1,8,12) occ(2,10,6) occ(3,10,13) coverage(183) occ(13,1,13) occ(17,1,9) occ(39,1,4) occ(45,1,5) occ(51,1,2) occ(65,1,7) occ(69,1,11) occ(114,1,3) occ(119,1,12) occ(120,1,6) occ(128,1,10) occ(15,2,11) occ(19,2,7) occ(37,2,2) occ(41,2,6) occ(47,2,3) occ(67,2,9) occ(71,2,13) occ(89,2,14) occ(112,2,1) occ(116,2,5) occ(121,2,10) occ(122,2,8) occ(126,2,12) occ(129,2,4) occ(11,3,14) occ(43,3,4) occ(49,3,1) occ(53,3,3) occ(63,3,6) occ(74,3,5) occ(91,3,12) occ(117,3,13) occ(118,3,7) occ(123,3,8) occ(124,3,10) occ(130,3,11) occ(131,3,2) occ(9,4,12) occ(21,4,6) occ(34,4,8) occ(35,4,1) occ(61,4,4) occ(72,4,3) occ(73,4,14) occ(76,4,7) occ(80,4,11) occ(87,4,13) occ(102,4,10) occ(110,4,2) occ(127,4,5) occ(132,4,9) occ(18,5,3) occ(36,5,10) occ(55,5,2) occ(68,5,6) occ(75,5,12) occ(78,5,9) occ(93,5,13) occ(104,5,8) occ(108,5,4) occ(115,5,14) occ(125,5,7) occ(133,5,1) occ(134,5,11) occ(169,5,5) occ(7,6,13) occ(16,6,5) occ(20,6,1) occ(23,6,7) occ(32,6,9) occ(33,6,2) occ(59,6,3) occ(66,6,8) occ(70,6,4) occ(82,6,10) occ(85,6,14) occ(97,6,12) occ(100,6,11) occ(106,6,6) occ(22,7,3) occ(38,7,9) occ(42,7,5) occ(57,7,1) occ(77,7,11) occ(84,7,8) occ(95,7,14) occ(113,7,13) occ(135,7,2) occ(136,7,12) occ(167,7,4) occ(171,7,6) occ(5,8,14) occ(14,8,4) occ(24,8,5) occ(25,8,6) occ(30,8,8) occ(31,8,1) occ(40,8,7) occ(64,8,9) occ(83,8,13) occ(98,8,10) occ(99,8,11) occ(159,8,3) occ(165,8,2) occ(12,9,2) occ(26,9,7) occ(29,9,3) occ(44,9,6) occ(79,9,12) occ(86,9,9) occ(96,9,8) occ(111,9,14) occ(137,9,1) occ(138,9,11) occ(146,9,13) occ(163,9,4) occ(173,9,5) occ(176,9,10) occ(8,10,1) occ(27,10,5) occ(28,10,9) occ(62,10,8) occ(81,10,14) occ(88,10,7) occ(101,10,10) occ(109,10,12) occ(148,10,11) occ(157,10,4) occ(161,10,2) occ(175,10,3) occ(4,11,4) occ(10,11,3) occ(46,11,5) occ(60,11,6) occ(94,11,7) occ(103,11,8) occ(107,11,10) occ(139,11,2) occ(140,11,12) occ(144,11,14) occ(150,11,13) occ(174,11,9) occ(177,11,1) occ(178,11,11) occ(6,12,2) occ(48,12,7) occ(54,12,8) occ(90,12,6) occ(145,12,4) occ(151,12,1) occ(155,12,3) occ(156,12,9) occ(166,12,12) occ(172,12,11) occ(180,12,13) occ(52,13,6) occ(58,13,5) occ(92,13,8) occ(105,13,9) occ(141,13,1) occ(142,13,13) occ(149,13,3) occ(152,13,12) occ(158,13,7) occ(162,13,11) occ(168,13,14) occ(179,13,2) occ(50,14,8) occ(56,14,7) occ(143,14,3) occ(147,14,5) occ(153,14,2) occ(154,14,10) occ(160,14,9) occ(164,14,13) occ(170,14,12) occ(181,14,4) occ(182,14,14)
Optimization: -183
Answer: 15
occ(1,7,7) occ(1,13,4) occ(1,3,9) occ(1,13,10) occ(1,8,12) occ(2,10,6) occ(3,10,13) coverage(184) occ(13,1,13) occ(17,1,9) occ(39,1,4) occ(45,1,5) occ(51,1,2) occ(65,1,7) occ(69,1,11) occ(114,1,3) occ(119,1,12) occ(120,1,6) occ(128,1,10) occ(15,2,11) occ(19,2,7) occ(37,2,2) occ(41,2,6) occ(47,2,3) occ(67,2,9) occ(71,2,13) occ(89,2,14) occ(112,2,1) occ(116,2,5) occ(121,2,10) occ(122,2,8) occ(126,2,12) occ(129,2,4) occ(11,3,14) occ(43,3,4) occ(49,3,1) occ(53,3,3) occ(63,3,6) occ(74,3,5) occ(91,3,12) occ(117,3,13) occ(118,3,7) occ(123,3,8) occ(124,3,10) occ(130,3,11) occ(131,3,2) occ(9,4,12) occ(21,4,6) occ(34,4,8) occ(35,4,1) occ(61,4,4) occ(72,4,3) occ(73,4,14) occ(76,4,7) occ(80,4,11) occ(87,4,13) occ(102,4,10) occ(110,4,2) occ(127,4,5) occ(132,4,9) occ(18,5,3) occ(36,5,10) occ(55,5,2) occ(68,5,6) occ(75,5,12) occ(78,5,9) occ(93,5,13) occ(104,5,8) occ(108,5,4) occ(115,5,14) occ(125,5,7) occ(133,5,1) occ(134,5,11) occ(169,5,5) occ(7,6,13) occ(16,6,5) occ(20,6,1) occ(23,6,7) occ(32,6,9) occ(33,6,2) occ(59,6,3) occ(66,6,8) occ(70,6,4) occ(82,6,10) occ(85,6,14) occ(97,6,12) occ(100,6,11) occ(106,6,6) occ(22,7,3) occ(38,7,9) occ(42,7,5) occ(57,7,1) occ(77,7,11) occ(84,7,8) occ(95,7,14) occ(113,7,13) occ(135,7,2) occ(136,7,12) occ(167,7,4) occ(171,7,6) occ(5,8,14) occ(14,8,4) occ(24,8,5) occ(25,8,6) occ(30,8,8) occ(31,8,1) occ(40,8,7) occ(64,8,9) occ(83,8,13) occ(98,8,10) occ(99,8,11) occ(159,8,3) occ(165,8,2) occ(12,9,2) occ(26,9,7) occ(29,9,3) occ(44,9,6) occ(79,9,12) occ(86,9,9) occ(96,9,8) occ(111,9,14) occ(137,9,1) occ(138,9,11) occ(146,9,13) occ(163,9,4) occ(173,9,5) occ(176,9,10) occ(8,10,1) occ(27,10,5) occ(28,10,9) occ(62,10,8) occ(81,10,14) occ(88,10,7) occ(101,10,10) occ(109,10,12) occ(148,10,11) occ(157,10,4) occ(161,10,2) occ(175,10,3) occ(4,11,4) occ(10,11,3) occ(46,11,5) occ(60,11,6) occ(94,11,7) occ(103,11,8) occ(107,11,10) occ(139,11,2) occ(140,11,12) occ(144,11,14) occ(150,11,13) occ(174,11,9) occ(177,11,1) occ(178,11,11) occ(6,12,2) occ(48,12,7) occ(54,12,8) occ(90,12,6) occ(145,12,4) occ(151,12,1) occ(155,12,3) occ(156,12,9) occ(166,12,12) occ(172,12,11) occ(180,12,13) occ(183,12,5) occ(52,13,6) occ(58,13,5) occ(92,13,8) occ(105,13,9) occ(141,13,1) occ(142,13,13) occ(149,13,3) occ(152,13,12) occ(158,13,7) occ(162,13,11) occ(168,13,14) occ(179,13,2) occ(50,14,8) occ(56,14,7) occ(143,14,3) occ(147,14,5) occ(153,14,2) occ(154,14,10) occ(160,14,9) occ(164,14,13) occ(170,14,12) occ(181,14,4) occ(182,14,14)
Optimization: -184
*** Info : (clingo): INTERRUPTED by signal!
SATISFIABLE

TIME LIMIT   : 1
Models       : 15+
  Optimum    : unknown
Optimization : -184
Calls        : 1
Time         : 300.000s (Solving: 285.20s 1st Model: 0.01s Unsat: 0.00s)
CPU Time     : 299.999s
